set I := 0 1 2 3 4 5 6 7 8 9 10 11 12 13 14 15 16 17 18 19 20 21 22 23 24;

param cap := 150;

param: size:=
    0 100
    1 98
    2 95
    3 91
    4 88
    5 84
    6 82
    7 78
    8 73
    9 70
    10 67
    11 64
    12 61
    13 58
    14 55
    15 53
    16 50
    17 47
    18 44
    19 41
    20 37
    21 34
    22 30
    23 26
    24 22;
